g3 0 1 0	# problem d3n16R4R9d005d05
 16 12 1 0 4	# vars, constraints, objectives, ranges, eqns
 5 1	# nonlinear constraints, objectives
 0 0	# network constraints: nonlinear, linear
 16 16 16	# nonlinear vars in constraints, objectives, both
 0 0 0 1	# linear network variables; functions; arith, flags
 0 0 0 0 0	# discrete variables: binary, integer, nonlinear (b,c,o)
 160 16	# nonzeros in Jacobian, gradients
 0 0	# max name lengths: constraints, variables
 0 0 0 0 0	# common exprs: b,c,o,c1,o1
b
0 0.44 2.81
0 0.32 2.23
0 0.81 2.59
0 0.08 2.43
0 0.39 2.43
0 0.4 2.98
0 0.02 2.35
0 0.25 2.47
0 0.92 2.22
0 0.91 2.89
0 0.05 2.85
0 0.27 2.91
0 0.9 2.79
0 0.27 2.67
0 0.78 2.5
0 0.79 2.17
r
2 191.207
2 662.438
2 154.934
2 810.127
2 161.051
4 31.217
4 62.882
4 62.728
4 60.196
2 95.491
2 113.168
2 73.24
C0
o54
8
o2
o2
n7.95
v0
v13
o2
o2
n2.49
v1
v2
o2
o2
n4.17
v1
v10
o2
o2
n7.37
v3
v12
o2
o2
n3.53
v5
v8
o2
o2
n6.47
v9
v15
o2
o2
n0.03
v10
v15
o2
o2
n8.07
v11
v13
C1
o54
48
o2
o2
n9.91
v0
v13
o2
o2
n8.42
v1
v2
o2
o2
n5.67
v1
v10
o2
o2
n4.59
v3
v12
o2
o2
n0.55
v5
v8
o2
o2
n3.78
v9
v15
o2
o2
n6.46
v10
v15
o16
o2
o2
n2.28
v11
v13
o2
o2
o2
n3.96
v0
v2
v3
o2
o2
o2
n2.35
v0
v2
v7
o16
o2
o2
o2
n6.58
v0
v2
v11
o16
o2
o2
o2
n2.86
v0
v7
v15
o2
o2
o2
n8.39
v0
v12
v15
o2
o2
o2
n0.19
v1
v1
v3
o2
o2
o2
n5.29
v1
v2
v8
o2
o2
o2
n2.5
v1
v9
v10
o2
o2
o2
n5.34
v1
v11
v15
o2
o2
o2
n4.91
v2
v3
v3
o16
o2
o2
o2
n8.36
v2
v5
v13
o2
o2
o2
n8.62
v2
v7
v14
o2
o2
o2
n0.2
v2
v9
v10
o2
o2
o2
n1.65
v2
v10
v15
o2
o2
o2
n1.91
v3
v4
v4
o2
o2
o2
n4.03
v3
v4
v7
o2
o2
o2
n9.18
v3
v8
v10
o2
o2
o2
n5.33
v3
v11
v12
o2
o2
o2
n2.38
v3
v12
v14
o2
o2
o2
n7.24
v3
v14
v15
o2
o2
o2
n2.44
v4
v10
v13
o2
o2
o2
n9.09
v4
v10
v15
o2
o2
o2
n2.89
v4
v11
v15
o2
o2
o2
n9.09
v5
v6
v11
o16
o2
o2
o2
n3.52
v5
v6
v12
o2
o2
o2
n9.06
v5
v8
v11
o2
o2
o2
n5.72
v5
v8
v13
o2
o2
o2
n5.58
v5
v12
v13
o2
o2
o2
n5.04
v5
v12
v14
o2
o2
o2
n5.28
v6
v11
v11
o2
o2
o2
n1.14
v7
v7
v8
o2
o2
o2
n7.01
v7
v7
v11
o2
o2
o2
n0.56
v7
v9
v10
o2
o2
o2
n8.97
v7
v9
v11
o2
o2
o2
n2.44
v7
v11
v15
o2
o2
o2
n3.28
v8
v11
v12
o2
o2
o2
n2.76
v8
v12
v14
o2
o2
o2
n6.02
v9
v11
v15
o2
o2
o2
n7.18
v10
v10
v14
o2
o2
o2
n5.53
v10
v10
v15
C2
o54
8
o2
o2
n1.64
v0
v13
o2
o2
n0.65
v1
v2
o2
o2
n4.12
v1
v10
o2
o2
n9.17
v3
v12
o16
o2
o2
n6.58
v5
v8
o2
o2
n4.04
v9
v15
o2
o2
n1.27
v10
v15
o2
o2
n1.13
v11
v13
C3
o54
48
o2
o2
n9.99
v0
v13
o2
o2
n2.56
v1
v2
o2
o2
n5.19
v1
v10
o2
o2
n5.24
v3
v12
o2
o2
n7.03
v5
v8
o2
o2
n6.59
v9
v15
o2
o2
n4.06
v10
v15
o2
o2
n6.22
v11
v13
o16
o2
o2
o2
n5.21
v0
v2
v3
o2
o2
o2
n4.42
v0
v2
v7
o2
o2
o2
n4
v0
v2
v11
o2
o2
o2
n3.35
v0
v7
v15
o2
o2
o2
n2.56
v0
v12
v15
o2
o2
o2
n5.02
v1
v1
v3
o2
o2
o2
n5.47
v1
v2
v8
o2
o2
o2
n8.69
v1
v9
v10
o2
o2
o2
n8.87
v1
v11
v15
o2
o2
o2
n5.56
v2
v3
v3
o2
o2
o2
n5.23
v2
v5
v13
o2
o2
o2
n3.51
v2
v7
v14
o2
o2
o2
n8.83
v2
v9
v10
o2
o2
o2
n9.87
v2
v10
v15
o2
o2
o2
n2.63
v3
v4
v4
o16
o2
o2
o2
n4.79
v3
v4
v7
o2
o2
o2
n1.45
v3
v8
v10
o2
o2
o2
n3.21
v3
v11
v12
o2
o2
o2
n2.13
v3
v12
v14
o2
o2
o2
n8.15
v3
v14
v15
o2
o2
o2
n5.72
v4
v10
v13
o2
o2
o2
n3.2
v4
v10
v15
o2
o2
o2
n2.13
v4
v11
v15
o2
o2
o2
n6.91
v5
v6
v11
o2
o2
o2
n2.55
v5
v6
v12
o2
o2
o2
n7.06
v5
v8
v11
o2
o2
o2
n9.95
v5
v8
v13
o2
o2
o2
n7.44
v5
v12
v13
o2
o2
o2
n2.9
v5
v12
v14
o2
o2
o2
n5.11
v6
v11
v11
o2
o2
o2
n3.16
v7
v7
v8
o2
o2
o2
n0.81
v7
v7
v11
o2
o2
o2
n2.21
v7
v9
v10
o2
o2
o2
n0.47
v7
v9
v11
o2
o2
o2
n7.12
v7
v11
v15
o2
o2
o2
n0.56
v8
v11
v12
o2
o2
o2
n1.06
v8
v12
v14
o2
o2
o2
n5.04
v9
v11
v15
o2
o2
o2
n8.74
v10
v10
v14
o2
o2
o2
n6.88
v10
v10
v15
C4
o54
8
o2
o2
n5.93
v0
v13
o2
o2
n4.79
v1
v2
o2
o2
n2.14
v1
v10
o16
o2
o2
n2.39
v3
v12
o2
o2
n1.15
v5
v8
o2
o2
n4.89
v9
v15
o2
o2
n7.88
v10
v15
o2
o2
n5.31
v11
v13
C5
n0
C6
n0
C7
n0
C8
n0
C9
n0
C10
n0
C11
n0
O0 0
o54
48
o2
o2
n8.66
v0
v13
o2
o2
n3.45
v1
v2
o2
o2
n2.23
v1
v10
o2
o2
n8.65
v3
v12
o2
o2
n6.01
v5
v8
o2
o2
n2.99
v9
v15
o2
o2
n9.31
v10
v15
o2
o2
n9.87
v11
v13
o2
o2
o2
n7.91
v0
v2
v3
o2
o2
o2
n7.71
v0
v2
v7
o2
o2
o2
n6.02
v0
v2
v11
o2
o2
o2
n0.42
v0
v7
v15
o2
o2
o2
n3.14
v0
v12
v15
o16
o2
o2
o2
n1.69
v1
v1
v3
o16
o2
o2
o2
n4.89
v1
v2
v8
o2
o2
o2
n4.54
v1
v9
v10
o16
o2
o2
o2
n1.73
v1
v11
v15
o2
o2
o2
n2.8
v2
v3
v3
o2
o2
o2
n4.83
v2
v5
v13
o2
o2
o2
n6.08
v2
v7
v14
o16
o2
o2
o2
n2.97
v2
v9
v10
o2
o2
o2
n4.7
v2
v10
v15
o2
o2
o2
n9.7
v3
v4
v4
o2
o2
o2
n6.26
v3
v4
v7
o2
o2
o2
n4.66
v3
v8
v10
o16
o2
o2
o2
n0.26
v3
v11
v12
o2
o2
o2
n8.25
v3
v12
v14
o2
o2
o2
n2.56
v3
v14
v15
o2
o2
o2
n3.64
v4
v10
v13
o2
o2
o2
n6.01
v4
v10
v15
o2
o2
o2
n5.22
v4
v11
v15
o16
o2
o2
o2
n8.94
v5
v6
v11
o2
o2
o2
n7.52
v5
v6
v12
o16
o2
o2
o2
n8.07
v5
v8
v11
o2
o2
o2
n3.72
v5
v8
v13
o2
o2
o2
n7.3
v5
v12
v13
o2
o2
o2
n7.71
v5
v12
v14
o2
o2
o2
n9.14
v6
v11
v11
o2
o2
o2
n8.88
v7
v7
v8
o2
o2
o2
n0.12
v7
v7
v11
o2
o2
o2
n3.65
v7
v9
v10
o2
o2
o2
n6.88
v7
v9
v11
o2
o2
o2
n2.73
v7
v11
v15
o2
o2
o2
n4.48
v8
v11
v12
o2
o2
o2
n8.35
v8
v12
v14
o16
o2
o2
o2
n3.44
v9
v11
v15
o2
o2
o2
n0.33
v10
v10
v14
o2
o2
o2
n7.18
v10
v10
v15
k15
9
19
28
40
51
62
71
82
94
104
114
123
132
142
151
J0 16
0 6.58
1 0.28
2 -9.71
3 5.55
4 6.36
5 4.3
6 6.24
7 5
8 6.46
9 0.63
10 3.86
11 1.72
12 4.37
13 3.46
14 9.92
15 9.82
J1 16
0 0.38
1 -2.88
2 2.14
3 9.08
4 1.34
5 3.94
6 0.15
7 5.08
8 9.74
9 8.8
10 8.74
11 -8.7
12 2.57
13 2.05
14 -3.95
15 -7.04
J2 16
0 8.41
1 -2.55
2 4.2
3 6.29
4 2.07
5 6.08
6 7.29
7 3.72
8 -5.11
9 8.62
10 8.17
11 6.46
12 7.14
13 8.36
14 5.25
15 3.11
J3 16
0 -1.39
1 2.43
2 4.2
3 6.81
4 0.08
5 3.61
6 7.68
7 2.01
8 0.68
9 3.93
10 6.28
11 -3.28
12 0.89
13 9.34
14 3.18
15 7.12
J4 16
0 5.16
1 -3.39
2 3.85
3 5.9
4 0.25
5 -3.32
6 7.09
7 7.82
8 1.25
9 6.33
10 1.15
11 9.89
12 3.81
13 9.76
14 1.9
15 2.9
J5 8
1 5.67
3 1.91
4 9.37
7 -7.13
8 -4.03
10 7.13
12 3.62
15 4.99
J6 8
2 2.08
3 6.69
4 4.92
5 2.94
8 4.03
11 6.87
13 9.27
14 4.98
J7 8
0 9.85
3 3.99
4 3.7
5 7.3
6 3.71
7 6.04
8 2.77
9 3.79
J8 8
1 8.94
3 5.38
5 -4.92
7 7.05
8 0.4
9 8
10 7.45
13 9.62
J9 16
0 0.18
1 8.11
2 3.78
3 3.97
4 2.72
5 5.46
6 6.85
7 1.29
8 4.4
9 3.07
10 8.45
11 6.24
12 8.04
13 -2.71
14 -4.26
15 7.93
J10 16
0 7.89
1 6.66
2 4.8
3 3.96
4 6.37
5 1.47
6 0.35
7 1.97
8 9.78
9 3.61
10 4.56
11 6.5
12 3.94
13 7.31
14 0.12
15 4.59
J11 16
0 2.1
1 1.75
2 -6.57
3 6.93
4 3.19
5 3
6 7.01
7 1.41
8 6.83
9 5.41
10 -6.94
11 7.48
12 5.82
13 0.8
14 2.43
15 7.8
G0 16
0 9.51
1 5.81
2 3.04
3 3.89
4 1.71
5 2.84
6 2.24
7 6.64
8 9.44
9 8.63
10 5.47
11 8.05
12 1.57
13 7.92
14 1.2
15 5.72
